NAME: tsp15_26
COMMENT: 15-tsp problem (Padberg/Rinaldi)
TYPE: TSP
DIMENSION: 15
EDGE_WEIGHT_TYPE : EUC_2D
NODE_COORD_SECTION
1 6 19
2 35 20
3 7 30
4 12 35
5 31 6
6 38 19
7 33 0
8 23 35
9 38 17
10 15 29
11 40 32
12 34 10
13 38 10
14 40 11
15 26 31
